# 76146
param k := 5;
param n := 60;
param s := 2;
set E :=  (0,12) (0,31) (0,40) (1,39) (1,55) (2,23) (2,47) (3,27) (4,10) (4,29) (5,8) (5,59) (6,13) (6,29) (7,15) (7,31) (7,51) (8,23) (9,23) (11,12) (11,18) (12,37) (13,23) (14,30) (16,42) (16,50) (17,37) (18,21) (18,43) (18,51) (19,22) (19,43) (19,50) (20,57) (20,59) (22,28) (23,33) (23,38) (23,42) (23,50) (23,56) (24,32) (24,42) (24,59) (25,27) (25,46) (25,57) (26,52) (27,32) (27,36) (28,43) (29,30) (30,36) (30,41) (31,35) (31,56) (32,52) (33,48) (34,40) (34,55) (36,53) (36,58) (37,59) (39,44) (39,50) (40,45) (41,53) (42,48) (42,53) (42,55) (43,48) (49,56) (53,54);